max_width = 33;
n_blocks = 23;
width = [7, 4, 4, 4, 4, 4, 4, 4, 3, 3, 3, 3, 3, 3, 3, 3, 3, 3, 3, 3, 3, 3, 3];
height = [33, 17, 14, 12, 10, 6, 4, 3, 33, 30, 24, 17, 15, 14, 13, 10, 9, 8, 7, 6, 5, 4, 3];
